27 36
21 77
36 129
8 158
21 25
24 159
64 39
35 96
15 73
7 119
81 49
11 80
4 49
1 174
6 22
26 10
43 37
7 55
11 190
22 190
29 76
32 155
34 75
35 69
11 164
42 1
73 30
92 10
62 23
31 26
1 29
15 133
98 55
10 195
31 70
46 71
8 143
55 30
70 8
10 119
89 61
4 40
27 81
60 16
10 180
16 192
18 16
12 109
34 112
56 39
